solution status: optimal solution found
objective value:                                   37
one.thingy.devices[2].thingy.v2_y                   -1 	(obj:0)
one.thingy.devices[2].thingy.v2_z                   -1 	(obj:0)
one.thingy.devices[2].thingy.v1_y                   -1 	(obj:0)
one.thingy.devices[2].thingy.v1_z                   -2 	(obj:0)
one.thingy.devices[1].thingy.v1_z                   -1 	(obj:0)
one.thingy.devices[1].thingy.v3_y                    1 	(obj:0)
one.thingy.devices[1].thingy.v3_z                   -2 	(obj:0)
one.thingy.devices[3].thingy.v3_z                   -4 	(obj:0)
one.thingy.devices[2].thingy.v3_z                   -3 	(obj:0)
one.thingy.devices[0].thingy.v2_y                    2 	(obj:0)
one.thingy.devices[0].thingy.v2_z                   -1 	(obj:0)
one.thingy.devices[3].thingy.v2_y                   -1 	(obj:0)
one.thingy.devices[3].thingy.v2_z                   -3 	(obj:0)
one.thingy.devices[0].thingy.v3_y                    1 	(obj:0)
one.thingy.devices[0].thingy.v3_z                   -1 	(obj:0)
one.thingy.devices[3].thingy.v1_y                   -1 	(obj:0)
one.thingy.devices[3].thingy.v1_z                   -5 	(obj:0)
one.thingy.devices[1].thingy.v2_z                   -2 	(obj:0)
x26                                                 1 	(obj:1)
x29                                                 2 	(obj:1)
x34                                                 1 	(obj:1)
x35                                                 2 	(obj:1)
x36                                                 1 	(obj:1)
x39                                                 1 	(obj:1)
x40                                                 1 	(obj:1)
x41                                                 1 	(obj:1)
x42                                                 1 	(obj:1)
x48                                                 2 	(obj:1)
x53                                                 1 	(obj:1)
x59                                                 1 	(obj:1)
x60                                                 2 	(obj:1)
x61                                                 1 	(obj:1)
x66                                                 2 	(obj:1)
x70                                                 2 	(obj:1)
x71                                                 2 	(obj:1)
x77                                                 1 	(obj:1)
x78                                                 2 	(obj:1)
x82                                                 1 	(obj:1)
x83                                                 2 	(obj:1)
x84                                                 1 	(obj:1)
x89                                                 2 	(obj:1)
x90                                                 1 	(obj:1)
x95                                                 1 	(obj:1)
x96                                                 2 	(obj:1)
